spark_2014_all/AUFBVDTNIRA/P630-037__keccak___keccak-sponge.adb_42_62_keccak-keccak_1600.ads_57_4_division_check.smt2
(set-info :smt-lib-version 2.5)
(set-info :license |https://www.gnu.org/licenses/gpl-3.0.html|)
(set-logic AUFBVDTNIRA)
(set-info :source |Benchmarks generated by Florian Schanda from the public SPARK 2014 testsuite and post-processed with a script to set more precise logics.|)
(set-info :category industrial)
(set-info :status unknown)

(declare-datatypes () ((tuple0 (Tuple0))))
(declare-sort us_private 0)
(declare-fun private__bool_eq (us_private us_private) Bool)
(declare-const us_null_ext__ us_private)
(declare-sort us_type_of_heap 0)
(declare-datatypes () ((us_type_of_heap__ref (mk___type_of_heap__ref (us_type_of_heap__content us_type_of_heap)))))
(declare-sort us_image 0)
(declare-datatypes () ((int__ref (mk_int__ref (int__content Int)))))
(declare-datatypes () ((bool__ref (mk_bool__ref (bool__content Bool)))))
(declare-datatypes () ((real__ref (mk_real__ref (real__content Real)))))
(declare-datatypes () ((us_private__ref (mk___private__ref (us_private__content us_private)))))
(define-fun int__ref___projection ((a int__ref)) Int (int__content a))
(define-fun bool__ref___projection ((a bool__ref)) Bool (bool__content a))
(define-fun real__ref___projection ((a real__ref)) Real (real__content a))
(define-fun us_private__ref___projection ((a us_private__ref)) us_private (us_private__content a))
(declare-fun div1 (Int Int) Int)
(declare-fun mod1 (Int Int) Int)
(assert (forall ((x Int) (y Int)) (=> (not (= y 0)) (= x (+ (* y (div1 x y)) (mod1 x y))))))
(assert (forall ((x Int) (y Int)) (=> (and (<= 0 x) (< 0 y)) (and (<= 0 (div1 x y)) (<= (div1 x y) x)))))
(assert (forall ((x Int) (y Int)) (=> (not (= y 0)) (and (< (- (abs y)) (mod1 x y)) (< (mod1 x y) (abs y))))))
(assert (forall ((x Int) (y Int)) (=> (and (<= 0 x) (< 0 y)) (<= 0 (div1 x y)))))
(assert (forall ((x Int) (y Int)) (=> (and (<= x 0) (< 0 y)) (<= (div1 x y) 0))))
(assert (forall ((x Int) (y Int)) (=> (and (<= 0 x) (not (= y 0))) (<= 0 (mod1 x y)))))
(assert (forall ((x Int) (y Int)) (=> (and (<= x 0) (not (= y 0))) (<= (mod1 x y) 0))))
(assert (forall ((x Int) (y Int)) (=> (not (= y 0)) (<= (abs (* (div1 x y) y)) (abs x)))))
(assert (forall ((x Int)) (= (div1 x 1) x)))
(assert (forall ((x Int)) (= (mod1 x 1) 0)))
(assert (forall ((x Int) (y Int)) (=> (and (<= 0 x) (< x y)) (= (div1 x y) 0))))
(assert (forall ((x Int) (y Int)) (=> (and (<= 0 x) (< x y)) (= (mod1 x y) x))))
(assert (forall ((x Int) (y Int) (z Int)) (! (=> (and (< 0 x) (and (<= 0 y) (<= 0 z))) (= (div1 (+ (* x y) z) x) (+ y (div1 z x)))) :pattern ((div1 (+ (* x y) z) x)))))
(assert (forall ((x Int) (y Int) (z Int)) (! (=> (and (< 0 x) (and (<= 0 y) (<= 0 z))) (= (mod1 (+ (* x y) z) x) (mod1 z x))) :pattern ((mod1 (+ (* x y) z) x)))))
(define-fun mod2 ((x Int) (y Int)) Int (ite (< 0 y) (mod x y) (+ (mod x y) y)))
(declare-fun nth ((_ BitVec 8) Int) Bool)
(declare-fun lsr ((_ BitVec 8) Int) (_ BitVec 8))
(declare-fun asr ((_ BitVec 8) Int) (_ BitVec 8))
(declare-fun lsl ((_ BitVec 8) Int) (_ BitVec 8))
(declare-fun rotate_right1 ((_ BitVec 8) Int) (_ BitVec 8))
(declare-fun rotate_left1 ((_ BitVec 8) Int) (_ BitVec 8))
(declare-fun pow2 (Int) Int)
(define-fun to_int1 ((x (_ BitVec 8))) Int (ite (bvsge x (_ bv0 8)) (bv2nat x) (- (- 256 (bv2nat x)))))
(define-fun uint_in_range ((i Int)) Bool (and (<= 0 i) (<= i 255)))
(assert (forall ((x (_ BitVec 8)) (n (_ BitVec 8))) (= (bvlshr x n) (lsr x (bv2nat n)))))
(assert (forall ((x (_ BitVec 8)) (n (_ BitVec 8))) (= (bvashr x n) (asr x (bv2nat n)))))
(assert (forall ((x (_ BitVec 8)) (n (_ BitVec 8))) (= (bvshl x n) (lsl x (bv2nat n)))))
(assert (forall ((v (_ BitVec 8)) (n (_ BitVec 8))) (= (bvor (bvshl v (bvurem n (_ bv8 8))) (bvlshr v (bvsub (_ bv8 8) (bvurem n (_ bv8 8))))) (rotate_left1 v (bv2nat n)))))
(assert (forall ((v (_ BitVec 8)) (n (_ BitVec 8))) (= (bvor (bvlshr v (bvurem n (_ bv8 8))) (bvshl v (bvsub (_ bv8 8) (bvurem n (_ bv8 8))))) (rotate_right1 v (bv2nat n)))))
(declare-fun nth_bv ((_ BitVec 8) (_ BitVec 8)) Bool)
(assert (forall ((x (_ BitVec 8)) (i (_ BitVec 8))) (= (= (nth_bv x i) true) (not (= (bvand (bvlshr x i) #x01) #x00)))))
(assert (forall ((x (_ BitVec 8)) (i (_ BitVec 8))) (= (nth x (bv2nat i)) (nth_bv x i))))
(assert (forall ((x (_ BitVec 8)) (i Int)) (=> (and (<= 0 i) (< i 256)) (= (nth_bv x ((_ int2bv 8) i)) (nth x i)))))
(declare-fun eq_sub_bv ((_ BitVec 8) (_ BitVec 8) (_ BitVec 8) (_ BitVec 8)) Bool)
(assert (forall ((a (_ BitVec 8)) (b (_ BitVec 8)) (i (_ BitVec 8)) (n (_ BitVec 8))) (let ((mask (bvshl (bvsub (bvshl #x01 n) #x01) i))) (= (eq_sub_bv a b i n) (= (bvand b mask) (bvand a mask))))))
(define-fun eq_sub ((a (_ BitVec 8)) (b (_ BitVec 8)) (i Int) (n Int)) Bool (forall ((j Int)) (=> (and (<= i j) (< j (+ i n))) (= (nth a j) (nth b j)))))
(assert (forall ((a (_ BitVec 8)) (b (_ BitVec 8)) (i (_ BitVec 8)) (n (_ BitVec 8))) (= (eq_sub a b (bv2nat i) (bv2nat n)) (eq_sub_bv a b i n))))
(declare-datatypes () ((t__ref (mk_t__ref (t__content (_ BitVec 8))))))
(declare-fun power ((_ BitVec 8) Int) (_ BitVec 8))
(define-fun bv_min ((x (_ BitVec 8)) (y (_ BitVec 8))) (_ BitVec 8) (ite (bvule x y) x y))
(define-fun bv_max ((x (_ BitVec 8)) (y (_ BitVec 8))) (_ BitVec 8) (ite (bvule x y) y x))
(define-fun in_range ((x Int)) Bool (or (= x 0) (= x 1)))
(declare-fun attr__ATTRIBUTE_IMAGE (Bool) us_image)
(declare-fun attr__ATTRIBUTE_VALUE__pre_check (us_image) Bool)
(declare-fun attr__ATTRIBUTE_VALUE (us_image) Bool)
(declare-sort positive 0)
(declare-fun positiveqtint (positive) Int)
(assert (forall ((i positive)) (and (<= 1 (positiveqtint i)) (<= (positiveqtint i) 2147483647))))
(define-fun in_range1 ((x Int)) Bool (and (<= 1 x) (<= x 2147483647)))
(declare-fun attr__ATTRIBUTE_IMAGE1 (Int) us_image)
(declare-fun attr__ATTRIBUTE_VALUE__pre_check1 (us_image) Bool)
(declare-fun attr__ATTRIBUTE_VALUE1 (us_image) Int)
(declare-fun user_eq (positive positive) Bool)
(declare-const dummy positive)
(declare-datatypes () ((positive__ref (mk_positive__ref (positive__content positive)))))
(define-fun positive__ref___projection ((a positive__ref)) positive (positive__content a))
(define-fun dynamic_invariant ((temp___expr_46 Int) (temp___is_init_42 Bool) (temp___skip_constant_43 Bool) (temp___do_toplevel_44 Bool) (temp___do_typ_inv_45 Bool)) Bool (=> (or (= temp___is_init_42 true) (<= 1 2147483647)) (in_range1 temp___expr_46)))
(declare-fun nth1 ((_ BitVec 64) Int) Bool)
(declare-fun lsr1 ((_ BitVec 64) Int) (_ BitVec 64))
(declare-fun asr1 ((_ BitVec 64) Int) (_ BitVec 64))
(declare-fun lsl1 ((_ BitVec 64) Int) (_ BitVec 64))
(declare-fun rotate_right2 ((_ BitVec 64) Int) (_ BitVec 64))
(declare-fun rotate_left2 ((_ BitVec 64) Int) (_ BitVec 64))
(define-fun to_int2 ((x (_ BitVec 64))) Int (ite (bvsge x (_ bv0 64)) (bv2nat x) (- (- 18446744073709551616 (bv2nat x)))))
(define-fun uint_in_range1 ((i Int)) Bool (and (<= 0 i) (<= i 18446744073709551615)))
(assert (forall ((x (_ BitVec 64)) (n (_ BitVec 64))) (= (bvlshr x n) (lsr1 x (bv2nat n)))))
(assert (forall ((x (_ BitVec 64)) (n (_ BitVec 64))) (= (bvashr x n) (asr1 x (bv2nat n)))))
(assert (forall ((x (_ BitVec 64)) (n (_ BitVec 64))) (= (bvshl x n) (lsl1 x (bv2nat n)))))
(assert (forall ((v (_ BitVec 64)) (n (_ BitVec 64))) (= (bvor (bvshl v (bvurem n (_ bv64 64))) (bvlshr v (bvsub (_ bv64 64) (bvurem n (_ bv64 64))))) (rotate_left2 v (bv2nat n)))))
(assert (forall ((v (_ BitVec 64)) (n (_ BitVec 64))) (= (bvor (bvlshr v (bvurem n (_ bv64 64))) (bvshl v (bvsub (_ bv64 64) (bvurem n (_ bv64 64))))) (rotate_right2 v (bv2nat n)))))
(declare-fun nth_bv1 ((_ BitVec 64) (_ BitVec 64)) Bool)
(assert (forall ((x (_ BitVec 64)) (i (_ BitVec 64))) (= (= (nth_bv1 x i) true) (not (= (bvand (bvlshr x i) #x0000000000000001) #x0000000000000000)))))
(assert (forall ((x (_ BitVec 64)) (i (_ BitVec 64))) (= (nth1 x (bv2nat i)) (nth_bv1 x i))))
(assert (forall ((x (_ BitVec 64)) (i Int)) (=> (and (<= 0 i) (< i 18446744073709551616)) (= (nth_bv1 x ((_ int2bv 64) i)) (nth1 x i)))))
(declare-fun eq_sub_bv1 ((_ BitVec 64) (_ BitVec 64) (_ BitVec 64) (_ BitVec 64)) Bool)
(assert (forall ((a (_ BitVec 64)) (b (_ BitVec 64)) (i (_ BitVec 64)) (n (_ BitVec 64))) (let ((mask (bvshl (bvsub (bvshl #x0000000000000001 n) #x0000000000000001) i))) (= (eq_sub_bv1 a b i n) (= (bvand b mask) (bvand a mask))))))
(define-fun eq_sub1 ((a (_ BitVec 64)) (b (_ BitVec 64)) (i Int) (n Int)) Bool (forall ((j Int)) (=> (and (<= i j) (< j (+ i n))) (= (nth1 a j) (nth1 b j)))))
(assert (forall ((a (_ BitVec 64)) (b (_ BitVec 64)) (i (_ BitVec 64)) (n (_ BitVec 64))) (= (eq_sub1 a b (bv2nat i) (bv2nat n)) (eq_sub_bv1 a b i n))))
(declare-datatypes () ((t__ref1 (mk_t__ref1 (t__content1 (_ BitVec 64))))))
(declare-fun power1 ((_ BitVec 64) Int) (_ BitVec 64))
(define-fun bv_min1 ((x (_ BitVec 64)) (y (_ BitVec 64))) (_ BitVec 64) (ite (bvule x y) x y))
(define-fun bv_max1 ((x (_ BitVec 64)) (y (_ BitVec 64))) (_ BitVec 64) (ite (bvule x y) y x))
(declare-sort lane_type 0)
(declare-const attr__ATTRIBUTE_MODULUS (_ BitVec 64))
(declare-fun attr__ATTRIBUTE_IMAGE2 ((_ BitVec 64)) us_image)
(declare-fun attr__ATTRIBUTE_VALUE__pre_check2 (us_image) Bool)
(declare-fun attr__ATTRIBUTE_VALUE2 (us_image) (_ BitVec 64))
(declare-fun user_eq1 (lane_type lane_type) Bool)
(declare-const dummy1 lane_type)
(declare-datatypes () ((lane_type__ref (mk_lane_type__ref (lane_type__content lane_type)))))
(define-fun lane_type__ref___projection ((a lane_type__ref)) lane_type (lane_type__content a))
(declare-fun to_rep (lane_type) (_ BitVec 64))
(declare-fun of_rep ((_ BitVec 64)) lane_type)
(assert (forall ((x lane_type)) (! (= (of_rep (to_rep x)) x) :pattern ((to_rep x)))))
(assert true)
(assert (forall ((x (_ BitVec 64))) (! (= (to_rep (of_rep x)) x) :pattern ((to_rep (of_rep x))))))
(define-fun to_int3 ((x lane_type)) Int (bv2nat (to_rep x)))
(assert (forall ((x lane_type)) (! (uint_in_range1 (to_int3 x)) :pattern ((to_int3 x)))))
(declare-sort map1 0)
(declare-datatypes () ((map__ref (mk_map__ref (map__content map1)))))
(declare-fun get (map1 (_ BitVec 8) (_ BitVec 8)) lane_type)
(declare-fun set (map1 (_ BitVec 8) (_ BitVec 8) lane_type) map1)
(assert (forall ((m map1)) (forall ((i (_ BitVec 8))) (forall ((j (_ BitVec 8))) (forall ((a lane_type)) (! (= (get (set m i j a) i j) a) :pattern ((set m i j a))))))))
(assert (forall ((m map1)) (forall ((i (_ BitVec 8)) (i2 (_ BitVec 8))) (forall ((j (_ BitVec 8)) (j2 (_ BitVec 8))) (forall ((a lane_type)) (! (=> (not (and (= i i2) (= j j2))) (= (get (set m i j a) i2 j2) (get m i2 j2))) :pattern ((get (set m i j a) i2 j2)) :pattern ((set m i j a) (get m i2 j2))))))))
(declare-fun slide (map1 (_ BitVec 8) (_ BitVec 8) (_ BitVec 8) (_ BitVec 8)) map1)
(assert (forall ((a map1)) (forall ((new_first (_ BitVec 8)) (old_first (_ BitVec 8))) (forall ((new_first_2 (_ BitVec 8)) (old_first_2 (_ BitVec 8))) (forall ((i (_ BitVec 8))) (forall ((j (_ BitVec 8))) (! (= (get (slide a old_first new_first old_first_2 new_first_2) i j) (get a (bvsub i (bvsub new_first old_first)) (bvsub j (bvsub new_first_2 old_first_2)))) :pattern ((get (slide a old_first new_first old_first_2 new_first_2) i j)))))))))
(define-fun bool_eq ((a map1) (a__first (_ BitVec 8)) (a__last (_ BitVec 8)) (a__first_2 (_ BitVec 8)) (a__last_2 (_ BitVec 8)) (b map1) (b__first (_ BitVec 8)) (b__last (_ BitVec 8)) (b__first_2 (_ BitVec 8)) (b__last_2 (_ BitVec 8))) Bool (ite (and (and (ite (bvule a__first a__last) (and (bvule b__first b__last) (= (bvsub a__last a__first) (bvsub b__last b__first))) (bvugt b__first b__last)) (ite (bvule a__first_2 a__last_2) (and (bvule b__first_2 b__last_2) (= (bvsub a__last_2 a__first_2) (bvsub b__last_2 b__first_2))) (bvugt b__first_2 b__last_2))) (forall ((temp___idx_155 (_ BitVec 8)) (temp___idx_156 (_ BitVec 8))) (=> (and (and (bvule a__first temp___idx_155) (bvule temp___idx_155 a__last)) (and (bvule a__first_2 temp___idx_156) (bvule temp___idx_156 a__last_2))) (= (to_rep (get a temp___idx_155 temp___idx_156)) (to_rep (get b (bvadd (bvsub b__first a__first) temp___idx_155) (bvadd (bvsub b__first_2 a__first_2) temp___idx_156))))))) true false))
(assert (forall ((a map1) (b map1)) (forall ((a__first (_ BitVec 8)) (a__last (_ BitVec 8)) (a__first_2 (_ BitVec 8)) (a__last_2 (_ BitVec 8)) (b__first (_ BitVec 8)) (b__last (_ BitVec 8)) (b__first_2 (_ BitVec 8)) (b__last_2 (_ BitVec 8))) (=> (= (bool_eq b b__first b__last b__first_2 b__last_2 a a__first a__last a__first_2 a__last_2) true) (and (and (ite (bvule a__first a__last) (and (bvule b__first b__last) (= (bvsub a__last a__first) (bvsub b__last b__first))) (bvugt b__first b__last)) (ite (bvule a__first_2 a__last_2) (and (bvule b__first_2 b__last_2) (= (bvsub a__last_2 a__first_2) (bvsub b__last_2 b__first_2))) (bvugt b__first_2 b__last_2))) (forall ((temp___idx_155 (_ BitVec 8)) (temp___idx_156 (_ BitVec 8))) (=> (and (and (bvule a__first temp___idx_155) (bvule temp___idx_155 a__last)) (and (bvule a__first_2 temp___idx_156) (bvule temp___idx_156 a__last_2))) (= (to_rep (get a temp___idx_155 temp___idx_156)) (to_rep (get b (bvadd (bvsub b__first a__first) temp___idx_155) (bvadd (bvsub b__first_2 a__first_2) temp___idx_156)))))))))))
(declare-const dummy2 map1)
(declare-const value__size Int)
(declare-fun object__size (map1) Int)
(declare-const value__component__size Int)
(declare-fun object__component__size (map1) Int)
(declare-const value__alignment Int)
(declare-fun object__alignment (map1) Int)
(assert (<= 0 value__size))
(assert (forall ((a map1)) (<= 0 (object__size a))))
(assert (<= 0 value__component__size))
(assert (forall ((a map1)) (<= 0 (object__component__size a))))
(assert (<= 0 value__alignment))
(assert (forall ((a map1)) (<= 0 (object__alignment a))))
(declare-fun user_eq2 (map1 map1) Bool)
(declare-sort states 0)
(define-fun in_range2 ((x Int)) Bool (and (<= 0 x) (<= x 1)))
(declare-fun attr__ATTRIBUTE_IMAGE3 (Int) us_image)
(declare-fun attr__ATTRIBUTE_VALUE__pre_check3 (us_image) Bool)
(declare-fun attr__ATTRIBUTE_VALUE3 (us_image) Int)
(declare-fun user_eq3 (states states) Bool)
(declare-const dummy3 states)
(declare-datatypes () ((states__ref (mk_states__ref (states__content states)))))
(define-fun states__ref___projection ((a states__ref)) states (states__content a))
(declare-fun to_rep1 (states) Int)
(declare-fun of_rep1 (Int) states)
(assert (forall ((x states)) (! (= (of_rep1 (to_rep1 x)) x) :pattern ((to_rep1 x)))))
(assert (forall ((x states)) (! (in_range2 (to_rep1 x)) :pattern ((to_rep1 x)))))
(assert (forall ((x Int)) (! (=> (in_range2 x) (= (to_rep1 (of_rep1 x)) x)) :pattern ((to_rep1 (of_rep1 x))))))
(declare-sort byte_absorption_number 0)
(declare-fun byte_absorption_numberqtint (byte_absorption_number) Int)
(assert (forall ((i byte_absorption_number)) (and (<= 0 (byte_absorption_numberqtint i)) (<= (byte_absorption_numberqtint i) 199))))
(define-fun in_range3 ((x Int)) Bool (and (<= 0 x) (<= x 199)))
(declare-fun attr__ATTRIBUTE_IMAGE4 (Int) us_image)
(declare-fun attr__ATTRIBUTE_VALUE__pre_check4 (us_image) Bool)
(declare-fun attr__ATTRIBUTE_VALUE4 (us_image) Int)
(declare-fun user_eq4 (byte_absorption_number byte_absorption_number) Bool)
(declare-const dummy4 byte_absorption_number)
(declare-datatypes () ((byte_absorption_number__ref (mk_byte_absorption_number__ref (byte_absorption_number__content byte_absorption_number)))))
(define-fun byte_absorption_number__ref___projection ((a byte_absorption_number__ref)) byte_absorption_number (byte_absorption_number__content a))
(define-fun to_rep2 ((x byte_absorption_number)) Int (byte_absorption_numberqtint x))
(declare-fun of_rep2 (Int) byte_absorption_number)
(assert (forall ((x byte_absorption_number)) (! (= (of_rep2 (to_rep2 x)) x) :pattern ((to_rep2 x)))))
(assert (forall ((x byte_absorption_number)) (! (in_range3 (to_rep2 x)) :pattern ((to_rep2 x)))))
(assert (forall ((x Int)) (! (=> (in_range3 x) (= (to_rep2 (of_rep2 x)) x)) :pattern ((to_rep2 (of_rep2 x))))))
(declare-sort byte 0)
(declare-const attr__ATTRIBUTE_MODULUS1 (_ BitVec 8))
(declare-fun attr__ATTRIBUTE_IMAGE5 ((_ BitVec 8)) us_image)
(declare-fun attr__ATTRIBUTE_VALUE__pre_check5 (us_image) Bool)
(declare-fun attr__ATTRIBUTE_VALUE5 (us_image) (_ BitVec 8))
(declare-fun user_eq5 (byte byte) Bool)
(declare-const dummy5 byte)
(declare-datatypes () ((byte__ref (mk_byte__ref (byte__content byte)))))
(define-fun byte__ref___projection ((a byte__ref)) byte (byte__content a))
(declare-fun to_rep3 (byte) (_ BitVec 8))
(declare-fun of_rep3 ((_ BitVec 8)) byte)
(assert (forall ((x byte)) (! (= (of_rep3 (to_rep3 x)) x) :pattern ((to_rep3 x)))))
(assert true)
(assert (forall ((x (_ BitVec 8))) (! (= (to_rep3 (of_rep3 x)) x) :pattern ((to_rep3 (of_rep3 x))))))
(define-fun to_int4 ((x byte)) Int (bv2nat (to_rep3 x)))
(assert (forall ((x byte)) (! (uint_in_range (to_int4 x)) :pattern ((to_int4 x)))))
(declare-datatypes () ((map__ref1 (mk_map__ref1 (map__content1 (Array Int byte))))))
(declare-fun slide1 ((Array Int byte) Int Int) (Array Int byte))
(assert (forall ((a (Array Int byte))) (forall ((first Int)) (! (= (slide1 a first first) a) :pattern ((slide1 a first first))))))
(assert (forall ((a (Array Int byte))) (forall ((old_first Int)) (forall ((new_first Int)) (forall ((i Int)) (! (= (select (slide1 a old_first new_first) i) (select a (- i (- new_first old_first)))) :pattern ((select (slide1 a old_first new_first) i))))))))
(define-fun bool_eq1 ((a (Array Int byte)) (a__first Int) (a__last Int) (b (Array Int byte)) (b__first Int) (b__last Int)) Bool (ite (and (ite (<= a__first a__last) (and (<= b__first b__last) (= (- a__last a__first) (- b__last b__first))) (< b__last b__first)) (forall ((temp___idx_154 Int)) (=> (and (<= a__first temp___idx_154) (<= temp___idx_154 a__last)) (= (to_rep3 (select a temp___idx_154)) (to_rep3 (select b (+ (- b__first a__first) temp___idx_154))))))) true false))
(assert (forall ((a (Array Int byte)) (b (Array Int byte))) (forall ((a__first Int) (a__last Int) (b__first Int) (b__last Int)) (=> (= (bool_eq1 b b__first b__last a a__first a__last) true) (and (ite (<= a__first a__last) (and (<= b__first b__last) (= (- a__last a__first) (- b__last b__first))) (< b__last b__first)) (forall ((temp___idx_154 Int)) (=> (and (<= a__first temp___idx_154) (<= temp___idx_154 a__last)) (= (to_rep3 (select a temp___idx_154)) (to_rep3 (select b (+ (- b__first a__first) temp___idx_154)))))))))))
(declare-const dummy6 (Array Int byte))
(declare-const value__size1 Int)
(declare-fun object__size1 ((Array Int byte)) Int)
(declare-const value__component__size1 Int)
(declare-fun object__component__size1 ((Array Int byte)) Int)
(declare-const value__alignment1 Int)
(declare-fun object__alignment1 ((Array Int byte)) Int)
(assert (<= 0 value__size1))
(assert (forall ((a (Array Int byte))) (<= 0 (object__size1 a))))
(assert (<= 0 value__component__size1))
(assert (forall ((a (Array Int byte))) (<= 0 (object__component__size1 a))))
(assert (<= 0 value__alignment1))
(assert (forall ((a (Array Int byte))) (<= 0 (object__alignment1 a))))
(declare-fun user_eq6 ((Array Int byte) (Array Int byte)) Bool)
(declare-sort bit_absorption_number 0)
(declare-fun bit_absorption_numberqtint (bit_absorption_number) Int)
(assert (forall ((i bit_absorption_number)) (and (<= 0 (bit_absorption_numberqtint i)) (<= (bit_absorption_numberqtint i) 1599))))
(define-fun in_range4 ((x Int)) Bool (and (<= 0 x) (<= x 1599)))
(declare-fun attr__ATTRIBUTE_IMAGE6 (Int) us_image)
(declare-fun attr__ATTRIBUTE_VALUE__pre_check6 (us_image) Bool)
(declare-fun attr__ATTRIBUTE_VALUE6 (us_image) Int)
(declare-fun user_eq7 (bit_absorption_number bit_absorption_number) Bool)
(declare-const dummy7 bit_absorption_number)
(declare-datatypes () ((bit_absorption_number__ref (mk_bit_absorption_number__ref (bit_absorption_number__content bit_absorption_number)))))
(define-fun bit_absorption_number__ref___projection ((a bit_absorption_number__ref)) bit_absorption_number (bit_absorption_number__content a))
(define-fun to_rep4 ((x bit_absorption_number)) Int (bit_absorption_numberqtint x))
(declare-fun of_rep4 (Int) bit_absorption_number)
(assert (forall ((x bit_absorption_number)) (! (= (of_rep4 (to_rep4 x)) x) :pattern ((to_rep4 x)))))
(assert (forall ((x bit_absorption_number)) (! (in_range4 (to_rep4 x)) :pattern ((to_rep4 x)))))
(assert (forall ((x Int)) (! (=> (in_range4 x) (= (to_rep4 (of_rep4 x)) x)) :pattern ((to_rep4 (of_rep4 x))))))
(declare-sort rate_number 0)
(declare-fun rate_numberqtint (rate_number) Int)
(assert (forall ((i rate_number)) (and (<= 1 (rate_numberqtint i)) (<= (rate_numberqtint i) 199))))
(define-fun in_range5 ((x Int)) Bool (and (<= 1 x) (<= x 199)))
(declare-fun attr__ATTRIBUTE_IMAGE7 (Int) us_image)
(declare-fun attr__ATTRIBUTE_VALUE__pre_check7 (us_image) Bool)
(declare-fun attr__ATTRIBUTE_VALUE7 (us_image) Int)
(declare-fun user_eq8 (rate_number rate_number) Bool)
(declare-const dummy8 rate_number)
(declare-datatypes () ((rate_number__ref (mk_rate_number__ref (rate_number__content rate_number)))))
(define-fun rate_number__ref___projection ((a rate_number__ref)) rate_number (rate_number__content a))
(define-fun to_rep5 ((x rate_number)) Int (rate_numberqtint x))
(declare-fun of_rep5 (Int) rate_number)
(assert (forall ((x rate_number)) (! (= (of_rep5 (to_rep5 x)) x) :pattern ((to_rep5 x)))))
(assert (forall ((x rate_number)) (! (in_range5 (to_rep5 x)) :pattern ((to_rep5 x)))))
(assert (forall ((x Int)) (! (=> (in_range5 x) (= (to_rep5 (of_rep5 x)) x)) :pattern ((to_rep5 (of_rep5 x))))))
(declare-datatypes () ((us_split_fields (mk___split_fields (rec__keccak__keccak_1600__sponge__context__state map1) (rec__keccak__keccak_1600__sponge__context__block (Array Int byte)) (rec__keccak__keccak_1600__sponge__context__bits_absorbed bit_absorption_number) (rec__keccak__keccak_1600__sponge__context__bytes_squeezed byte_absorption_number) (rec__keccak__keccak_1600__sponge__context__rate rate_number) (rec__keccak__keccak_1600__sponge__context__curr_state states)))))
(define-fun us_split_fields_State__projection ((a us_split_fields)) map1 (rec__keccak__keccak_1600__sponge__context__state a))
(define-fun us_split_fields_Block__projection ((a us_split_fields)) (Array Int byte) (rec__keccak__keccak_1600__sponge__context__block a))
(define-fun us_split_fields_Bits_Absorbed__projection ((a us_split_fields)) bit_absorption_number (rec__keccak__keccak_1600__sponge__context__bits_absorbed a))
(define-fun us_split_fields_Bytes_Squeezed__projection ((a us_split_fields)) byte_absorption_number (rec__keccak__keccak_1600__sponge__context__bytes_squeezed a))
(define-fun us_split_fields_Rate__projection ((a us_split_fields)) rate_number (rec__keccak__keccak_1600__sponge__context__rate a))
(define-fun us_split_fields_Curr_State__projection ((a us_split_fields)) states (rec__keccak__keccak_1600__sponge__context__curr_state a))
(declare-datatypes () ((us_split_fields__ref (mk___split_fields__ref (us_split_fields__content us_split_fields)))))
(define-fun us_split_fields__ref___projection ((a us_split_fields__ref)) us_split_fields (us_split_fields__content a))
(declare-datatypes () ((us_rep (mk___rep (us_split_fields1 us_split_fields)))))
(define-fun us_rep___projection ((a us_rep)) us_split_fields (us_split_fields1 a))
(define-fun bool_eq2 ((a us_rep) (b us_rep)) Bool (ite (and (and (and (and (and (= (bool_eq (rec__keccak__keccak_1600__sponge__context__state (us_split_fields1 a)) #x00 #x04 #x00 #x04 (rec__keccak__keccak_1600__sponge__context__state (us_split_fields1 b)) #x00 #x04 #x00 #x04) true) (= (bool_eq1 (rec__keccak__keccak_1600__sponge__context__block (us_split_fields1 a)) 0 199 (rec__keccak__keccak_1600__sponge__context__block (us_split_fields1 b)) 0 199) true)) (= (to_rep4 (rec__keccak__keccak_1600__sponge__context__bits_absorbed (us_split_fields1 a))) (to_rep4 (rec__keccak__keccak_1600__sponge__context__bits_absorbed (us_split_fields1 b))))) (= (to_rep2 (rec__keccak__keccak_1600__sponge__context__bytes_squeezed (us_split_fields1 a))) (to_rep2 (rec__keccak__keccak_1600__sponge__context__bytes_squeezed (us_split_fields1 b))))) (= (to_rep5 (rec__keccak__keccak_1600__sponge__context__rate (us_split_fields1 a))) (to_rep5 (rec__keccak__keccak_1600__sponge__context__rate (us_split_fields1 b))))) (= (to_rep1 (rec__keccak__keccak_1600__sponge__context__curr_state (us_split_fields1 a))) (to_rep1 (rec__keccak__keccak_1600__sponge__context__curr_state (us_split_fields1 b))))) true false))
(declare-const value__size2 Int)
(declare-fun object__size2 (us_rep) Int)
(declare-const value__alignment2 Int)
(declare-fun object__alignment2 (us_rep) Int)
(assert (<= 0 value__size2))
(assert (forall ((a us_rep)) (<= 0 (object__size2 a))))
(assert (<= 0 value__alignment2))
(assert (forall ((a us_rep)) (<= 0 (object__alignment2 a))))
(declare-const keccak__keccak_1600__sponge__context__state__first__bit Int)
(declare-const keccak__keccak_1600__sponge__context__state__last__bit Int)
(declare-const keccak__keccak_1600__sponge__context__state__position Int)
(assert (<= 0 keccak__keccak_1600__sponge__context__state__first__bit))
(assert (< keccak__keccak_1600__sponge__context__state__first__bit keccak__keccak_1600__sponge__context__state__last__bit))
(assert (<= 0 keccak__keccak_1600__sponge__context__state__position))
(declare-const keccak__keccak_1600__sponge__context__block__first__bit Int)
(declare-const keccak__keccak_1600__sponge__context__block__last__bit Int)
(declare-const keccak__keccak_1600__sponge__context__block__position Int)
(assert (<= 0 keccak__keccak_1600__sponge__context__block__first__bit))
(assert (< keccak__keccak_1600__sponge__context__block__first__bit keccak__keccak_1600__sponge__context__block__last__bit))
(assert (<= 0 keccak__keccak_1600__sponge__context__block__position))
(declare-const keccak__keccak_1600__sponge__context__bits_absorbed__first__bit Int)
(declare-const keccak__keccak_1600__sponge__context__bits_absorbed__last__bit Int)
(declare-const keccak__keccak_1600__sponge__context__bits_absorbed__position Int)
(assert (<= 0 keccak__keccak_1600__sponge__context__bits_absorbed__first__bit))
(assert (< keccak__keccak_1600__sponge__context__bits_absorbed__first__bit keccak__keccak_1600__sponge__context__bits_absorbed__last__bit))
(assert (<= 0 keccak__keccak_1600__sponge__context__bits_absorbed__position))
(declare-const keccak__keccak_1600__sponge__context__bytes_squeezed__first__bit Int)
(declare-const keccak__keccak_1600__sponge__context__bytes_squeezed__last__bit Int)
(declare-const keccak__keccak_1600__sponge__context__bytes_squeezed__position Int)
(assert (<= 0 keccak__keccak_1600__sponge__context__bytes_squeezed__first__bit))
(assert (< keccak__keccak_1600__sponge__context__bytes_squeezed__first__bit keccak__keccak_1600__sponge__context__bytes_squeezed__last__bit))
(assert (<= 0 keccak__keccak_1600__sponge__context__bytes_squeezed__position))
(declare-const keccak__keccak_1600__sponge__context__rate__first__bit Int)
(declare-const keccak__keccak_1600__sponge__context__rate__last__bit Int)
(declare-const keccak__keccak_1600__sponge__context__rate__position Int)
(assert (<= 0 keccak__keccak_1600__sponge__context__rate__first__bit))
(assert (< keccak__keccak_1600__sponge__context__rate__first__bit keccak__keccak_1600__sponge__context__rate__last__bit))
(assert (<= 0 keccak__keccak_1600__sponge__context__rate__position))
(declare-const keccak__keccak_1600__sponge__context__curr_state__first__bit Int)
(declare-const keccak__keccak_1600__sponge__context__curr_state__last__bit Int)
(declare-const keccak__keccak_1600__sponge__context__curr_state__position Int)
(assert (<= 0 keccak__keccak_1600__sponge__context__curr_state__first__bit))
(assert (< keccak__keccak_1600__sponge__context__curr_state__first__bit keccak__keccak_1600__sponge__context__curr_state__last__bit))
(assert (<= 0 keccak__keccak_1600__sponge__context__curr_state__position))
(declare-fun user_eq9 (us_rep us_rep) Bool)
(declare-const dummy9 us_rep)
(declare-datatypes () ((context__ref (mk_context__ref (context__content us_rep)))))
(define-fun context__ref___projection ((a context__ref)) us_rep (context__content a))
(declare-fun state_of (us_rep) Int)
(declare-fun state_of__function_guard (Int us_rep) Bool)
(define-fun dynamic_invariant1 ((temp___expr_413 Int) (temp___is_init_409 Bool) (temp___skip_constant_410 Bool) (temp___do_toplevel_411 Bool) (temp___do_typ_inv_412 Bool)) Bool (=> (or (= temp___is_init_409 true) (<= 0 1)) (in_range2 temp___expr_413)))
(assert (forall ((ctx us_rep)) (! (dynamic_invariant1 (state_of ctx) true false true true) :pattern ((state_of ctx)))))
(assert (forall ((ctx us_rep)) (! (= (state_of ctx) (to_rep1 (rec__keccak__keccak_1600__sponge__context__curr_state (us_split_fields1 ctx)))) :pattern ((state_of ctx)))))
(declare-fun rate_of (us_rep) Int)
(declare-fun rate_of__function_guard (Int us_rep) Bool)
(assert (forall ((ctx us_rep)) (! (let ((result (rate_of ctx))) (and (< result 1600) (dynamic_invariant result true false true true))) :pattern ((rate_of ctx)))))
(assert (forall ((ctx us_rep)) (! (= (rate_of ctx) (* (to_rep5 (rec__keccak__keccak_1600__sponge__context__rate (us_split_fields1 ctx))) 8)) :pattern ((rate_of ctx)))))
(declare-fun in_queue_bit_length (us_rep) Int)
(declare-fun in_queue_bit_length__function_guard (Int us_rep) Bool)
(declare-sort natural 0)
(declare-fun naturalqtint (natural) Int)
(assert (forall ((i natural)) (and (<= 0 (naturalqtint i)) (<= (naturalqtint i) 2147483647))))
(define-fun in_range6 ((x Int)) Bool (and (<= 0 x) (<= x 2147483647)))
(declare-fun attr__ATTRIBUTE_IMAGE8 (Int) us_image)
(declare-fun attr__ATTRIBUTE_VALUE__pre_check8 (us_image) Bool)
(declare-fun attr__ATTRIBUTE_VALUE8 (us_image) Int)
(declare-fun user_eq10 (natural natural) Bool)
(declare-const dummy10 natural)
(declare-datatypes () ((natural__ref (mk_natural__ref (natural__content natural)))))
(define-fun natural__ref___projection ((a natural__ref)) natural (natural__content a))
(define-fun dynamic_invariant2 ((temp___expr_39 Int) (temp___is_init_35 Bool) (temp___skip_constant_36 Bool) (temp___do_toplevel_37 Bool) (temp___do_typ_inv_38 Bool)) Bool (=> (or (= temp___is_init_35 true) (<= 0 2147483647)) (in_range6 temp___expr_39)))
(assert (forall ((ctx us_rep)) (! (let ((result (in_queue_bit_length ctx))) (and (< result 1600) (dynamic_invariant2 result true false true true))) :pattern ((in_queue_bit_length ctx)))))
(assert (forall ((ctx us_rep)) (! (= (in_queue_bit_length ctx) (to_rep4 (rec__keccak__keccak_1600__sponge__context__bits_absorbed (us_split_fields1 ctx)))) :pattern ((in_queue_bit_length ctx)))))
(declare-const attr__ATTRIBUTE_ADDRESS Int)
(declare-const capacity Int)
(declare-const attr__ATTRIBUTE_ADDRESS1 Int)
(declare-fun temp_____aggregate_def_868 ((_ BitVec 8)) (Array Int byte))
(define-fun dynamic_invariant3 ((temp___expr_286 (_ BitVec 8)) (temp___is_init_282 Bool) (temp___skip_constant_283 Bool) (temp___do_toplevel_284 Bool) (temp___do_typ_inv_285 Bool)) Bool true)
(define-fun dynamic_invariant4 ((temp___expr_444 Int) (temp___is_init_440 Bool) (temp___skip_constant_441 Bool) (temp___do_toplevel_442 Bool) (temp___do_typ_inv_443 Bool)) Bool (=> (or (= temp___is_init_440 true) (<= 1 199)) (in_range5 temp___expr_444)))
(define-fun dynamic_invariant5 ((temp___expr_420 Int) (temp___is_init_416 Bool) (temp___skip_constant_417 Bool) (temp___do_toplevel_418 Bool) (temp___do_typ_inv_419 Bool)) Bool (=> (or (= temp___is_init_416 true) (<= 0 199)) (in_range3 temp___expr_420)))
(define-fun dynamic_invariant6 ((temp___expr_437 Int) (temp___is_init_433 Bool) (temp___skip_constant_434 Bool) (temp___do_toplevel_435 Bool) (temp___do_typ_inv_436 Bool)) Bool (=> (or (= temp___is_init_433 true) (<= 0 1599)) (in_range4 temp___expr_437)))
(assert (forall ((temp___870 (_ BitVec 8))) (=> (dynamic_invariant3 temp___870 true true true true) (forall ((temp___871 Int)) (= (to_rep3 (select (temp_____aggregate_def_868 temp___870) temp___871)) temp___870)))))
(declare-const rliteral bit_absorption_number)
(assert (= (bit_absorption_numberqtint rliteral) 0))
(declare-const rliteral1 byte_absorption_number)
(assert (= (byte_absorption_numberqtint rliteral1) 0))
(declare-const ctx__split_fields map1)
(declare-const ctx__split_fields1 (Array Int byte))
(declare-const ctx__split_fields2 bit_absorption_number)
(declare-const ctx__split_fields3 byte_absorption_number)
(declare-const ctx__split_fields4 rate_number)
(declare-const ctx__split_fields5 states)
(declare-const keccak__keccak_1600__keccakf_1600__init__a map1)
(declare-const result map1)
(declare-const result1 (Array Int byte))
(declare-const result2 bit_absorption_number)
(declare-const result3 byte_absorption_number)
(declare-const result4 rate_number)
(declare-const result5 states)
(declare-const ctx__split_fields6 map1)
(declare-const ctx__split_fields7 (Array Int byte))
(declare-const ctx__split_fields8 bit_absorption_number)
(declare-const ctx__split_fields9 byte_absorption_number)
(declare-const ctx__split_fields10 rate_number)
(declare-const ctx__split_fields11 states)
(declare-const result6 map1)
(declare-const result7 (Array Int byte))
(declare-const result8 bit_absorption_number)
(declare-const result9 byte_absorption_number)
(declare-const result10 rate_number)
(declare-const result11 states)
(declare-const ctx__split_fields12 map1)
(declare-const ctx__split_fields13 (Array Int byte))
(declare-const ctx__split_fields14 bit_absorption_number)
(declare-const ctx__split_fields15 byte_absorption_number)
(declare-const ctx__split_fields16 rate_number)
(declare-const ctx__split_fields17 states)
(declare-const result12 map1)
(declare-const result13 (Array Int byte))
(declare-const result14 bit_absorption_number)
(declare-const result15 byte_absorption_number)
(declare-const result16 rate_number)
(declare-const result17 states)
(declare-const ctx__split_fields18 map1)
(declare-const ctx__split_fields19 (Array Int byte))
(declare-const ctx__split_fields20 bit_absorption_number)
(declare-const ctx__split_fields21 byte_absorption_number)
(declare-const ctx__split_fields22 rate_number)
(declare-const ctx__split_fields23 states)
(declare-const result18 map1)
(declare-const result19 (Array Int byte))
(declare-const result20 bit_absorption_number)
(declare-const result21 byte_absorption_number)
(declare-const result22 rate_number)
(declare-const result23 states)
(declare-const ctx__split_fields24 map1)
(declare-const ctx__split_fields25 (Array Int byte))
(declare-const ctx__split_fields26 bit_absorption_number)
(declare-const ctx__split_fields27 byte_absorption_number)
(declare-const ctx__split_fields28 rate_number)
(declare-const ctx__split_fields29 states)
(assert (in_range1 capacity))
(assert (and (= (mod2 (- 1600 capacity) 8) 0) (< capacity 1600)))
(assert (= (mk___split_fields__ref (mk___split_fields result result1 result2 result3 result4 result5)) (mk___split_fields__ref (mk___split_fields ctx__split_fields ctx__split_fields1 ctx__split_fields2 ctx__split_fields3 ctx__split_fields4 ctx__split_fields5))))
(assert (= keccak__keccak_1600__keccakf_1600__init__a ctx__split_fields6))
(assert (= ctx__split_fields1 ctx__split_fields7))
(assert (= ctx__split_fields2 ctx__split_fields8))
(assert (= ctx__split_fields3 ctx__split_fields9))
(assert (= ctx__split_fields4 ctx__split_fields10))
(assert (= ctx__split_fields5 ctx__split_fields11))
(assert (= result6 ctx__split_fields6))
(assert (= result7 ctx__split_fields7))
(assert (= result8 ctx__split_fields8))
(assert (= result9 ctx__split_fields9))
(assert (= result10 ctx__split_fields10))
(assert (= result11 ctx__split_fields11))
(assert (= ctx__split_fields6 ctx__split_fields12))
(assert (= (temp_____aggregate_def_868 #x00) ctx__split_fields13))
(assert (= ctx__split_fields8 ctx__split_fields14))
(assert (= ctx__split_fields9 ctx__split_fields15))
(assert (= ctx__split_fields10 ctx__split_fields16))
(assert (= ctx__split_fields11 ctx__split_fields17))
(assert (= result12 ctx__split_fields12))
(assert (= result13 ctx__split_fields13))
(assert (= result14 ctx__split_fields14))
(assert (= result15 ctx__split_fields15))
(assert (= result16 ctx__split_fields16))
(assert (= result17 ctx__split_fields17))
(assert (= ctx__split_fields12 ctx__split_fields18))
(assert (= ctx__split_fields13 ctx__split_fields19))
(assert (= rliteral ctx__split_fields20))
(assert (= ctx__split_fields15 ctx__split_fields21))
(assert (= ctx__split_fields16 ctx__split_fields22))
(assert (= ctx__split_fields17 ctx__split_fields23))
(assert (= result18 ctx__split_fields18))
(assert (= result19 ctx__split_fields19))
(assert (= result20 ctx__split_fields20))
(assert (= result21 ctx__split_fields21))
(assert (= result22 ctx__split_fields22))
(assert (= result23 ctx__split_fields23))
(assert (= ctx__split_fields18 ctx__split_fields24))
(assert (= ctx__split_fields19 ctx__split_fields25))
(assert (= ctx__split_fields20 ctx__split_fields26))
(assert (= rliteral1 ctx__split_fields27))
(assert (= ctx__split_fields22 ctx__split_fields28))
(assert (= ctx__split_fields23 ctx__split_fields29))
(assert (not (not (= 8 0))))
(check-sat)
(exit)
